c Random generated cnf formula, satisfiable: false
p cnf 10 50
-2 -3 8 0
-4 2 -9 0
5 2 10 0
7 -6 3 0
-6 5 1 0
3 5 -7 0
-9 -10 3 0
3 -5 -6 0
4 -7 -6 0
1 4 -8 0
-6 7 -8 0
-6 2 -5 0
1 -3 7 0
-9 -2 -8 0
-2 1 6 0
9 3 -4 0
-9 1 -8 0
-3 -10 -1 0
5 -9 -10 0
3 -5 -8 0
5 -8 10 0
7 -10 -3 0
10 1 8 0
-5 8 -3 0
6 3 7 0
-4 -9 -3 0
6 -1 10 0
9 3 -6 0
-2 9 5 0
-6 9 -10 0
2 4 7 0
2 10 -7 0
9 1 -8 0
-2 5 7 0
-1 10 -8 0
-6 -5 -1 0
7 9 -4 0
-9 6 5 0
7 10 3 0
2 -8 5 0
8 -5 -2 0
-1 10 7 0
3 6 -4 0
5 9 2 0
-2 -4 3 0
-7 5 1 0
10 1 -7 0
2 4 -5 0
2 -4 -5 0
5 -1 -3 0
